14 73 13 63 76 41 





































































































49 71 12 66 25 20 
0 47 45 58 39 40 
9 4 60 61 21 69 
72 55 22 17 28 19 
24 23 42 29 56 
43 54 44 37 51 31 
35 15 46 36 32 7 
67 8 2 65 62 48 
11 57 3 1 53 5 
34 16 18 26 27 38 
50 30 64 59 10 

6 33 74 68 70 75 52 
